     0    633    257    91    412    150    80    134    259    505    353    324    70    211    268    246    121
    -1    0    390    661    227    488    572    530    555    289    282    638    567    466    420    475    518
    -1    -1    0    0    3    5    3    3    24    24    48    48    72    72    0    3    5
    -1    -1    -1    0    48    48    48    48    12    12    6    6    0    0    74    48    48
    -1    -1    -1    -1    0    48    48    38    12    12    6    6    0    0    74    48    48
    -1    -1    -1    -1    -1    0    8    8    8    8    0    0    6    6    50    8    8
    -1    -1    -1    -1    -1    -1    0    8    8    8    0    0    6    6    50    8    8
    -1    -1    -1    -1    -1    -1    -1    0    0    0    8    8    12    12    26    5    5
    -1    -1    -1    -1    -1    -1    -1    -1    0    0    8    8    12    12    26    5    5
    -1    -1    -1    -1    -1    -1    -1    -1    -1    0    8    8    48    48    3    0    3
    -1    -1    -1    -1    -1    -1    -1    -1    -1    -1    0    48    48    3    0    3    0
    -1    -1    -1    -1    -1    -1    -1    -1    -1    -1    -1    0    48    48    3    0    3
    -1    -1    -1    -1    -1    -1    -1    -1    -1    -1    -1    -1    0    72    0    3    5
    -1    -1    -1    -1    -1    -1    -1    -1    -1    -1    -1    -1    -1    0    50     8    8
    -1    -1    -1    -1    -1    -1    -1    -1    -1    -1    -1    -1    -1    -1    0    8    8
    -1    -1    -1    -1    -1    -1    -1    -1    -1    -1    -1    -1    -1    -1    -1    0    5
